DIMACS/bio-diseasome.txt
p edge 517 1188
e 1 344
e 2 287
e 3 187
e 3 476
e 4 194
e 4 209
e 5 243
e 5 349
e 5 430
e 5 441
e 5 478
e 6 48
e 6 122
e 6 143
e 7 66
e 7 87
e 7 93
e 7 110
e 7 213
e 7 297
e 7 453
e 8 269
e 9 262
e 10 280
e 10 347
e 10 378
e 10 393
e 10 432
e 11 93
e 11 163
e 11 169
e 11 251
e 11 282
e 11 333
e 11 355
e 11 364
e 12 13
e 12 93
e 12 120
e 12 162
e 12 163
e 12 463
e 13 93
e 13 120
e 13 162
e 13 163
e 13 463
e 14 422
e 15 81
e 15 313
e 15 457
e 15 506
e 16 67
e 17 26
e 17 128
e 17 456
e 18 113
e 18 452
e 19 477
e 20 34
e 20 337
e 20 415
e 20 418
e 21 248
e 21 292
e 22 45
e 23 291
e 24 26
e 24 32
e 24 115
e 24 121
e 24 198
e 24 204
e 24 305
e 24 306
e 24 374
e 24 379
e 24 414
e 24 415
e 24 417
e 24 499
e 24 516
e 25 26
e 25 82
e 25 129
e 26 39
e 26 82
e 26 97
e 26 128
e 26 129
e 26 207
e 26 208
e 26 415
e 27 263
e 27 386
e 27 433
e 27 435
e 28 71
e 28 369
e 28 389
e 28 435
e 29 134
e 29 404
e 29 434
e 30 53
e 30 287
e 30 384
e 30 401
e 31 200
e 31 258
e 31 299
e 31 361
e 31 388
e 31 492
e 31 497
e 32 121
e 32 306
e 32 414
e 32 516
e 33 83
e 33 92
e 33 132
e 33 150
e 33 156
e 33 238
e 33 296
e 33 370
e 33 512
e 34 337
e 34 415
e 34 418
e 35 55
e 35 70
e 35 83
e 35 231
e 35 232
e 35 406
e 36 337
e 37 132
e 37 274
e 37 276
e 37 425
e 37 483
e 38 61
e 38 106
e 38 107
e 38 110
e 38 163
e 38 233
e 38 372
e 38 411
e 39 97
e 39 194
e 39 207
e 39 208
e 40 204
e 41 67
e 42 123
e 42 140
e 42 242
e 42 429
e 42 470
e 43 438
e 44 53
e 44 287
e 45 49
e 45 50
e 45 64
e 45 115
e 45 222
e 45 271
e 45 291
e 45 336
e 45 380
e 45 421
e 46 142
e 47 71
e 47 265
e 47 451
e 48 122
e 48 143
e 48 244
e 48 437
e 50 316
e 50 380
e 51 52
e 51 80
e 51 235
e 51 262
e 51 452
e 52 339
e 52 447
e 52 452
e 52 501
e 53 287
e 53 384
e 53 401
e 54 163
e 54 186
e 54 332
e 54 439
e 55 231
e 55 232
e 55 406
e 56 101
e 56 137
e 56 253
e 56 285
e 56 340
e 56 389
e 56 457
e 56 469
e 57 403
e 57 482
e 57 515
e 58 80
e 58 331
e 59 113
e 59 219
e 59 239
e 59 241
e 59 474
e 60 78
e 60 190
e 60 281
e 60 363
e 60 496
e 61 106
e 61 107
e 61 110
e 61 163
e 61 233
e 61 372
e 61 411
e 62 80
e 62 126
e 62 310
e 63 252
e 64 336
e 65 93
e 65 381
e 65 397
e 66 71
e 66 87
e 66 93
e 66 99
e 66 110
e 66 213
e 66 252
e 66 264
e 66 297
e 66 357
e 66 400
e 66 442
e 66 453
e 66 457
e 67 134
e 67 182
e 67 271
e 67 405
e 67 434
e 67 514
e 68 149
e 68 199
e 68 351
e 68 352
e 68 353
e 68 468
e 69 160
e 69 327
e 69 399
e 71 93
e 71 137
e 71 152
e 71 163
e 71 186
e 71 188
e 71 252
e 71 256
e 71 260
e 71 264
e 71 265
e 71 282
e 71 314
e 71 354
e 71 355
e 71 357
e 71 358
e 71 369
e 71 389
e 71 402
e 71 435
e 71 442
e 71 451
e 71 457
e 71 486
e 71 493
e 71 511
e 72 178
e 72 262
e 72 426
e 72 509
e 73 157
e 73 399
e 73 502
e 74 510
e 75 93
e 75 169
e 75 265
e 75 266
e 75 298
e 75 321
e 75 355
e 75 463
e 76 124
e 76 133
e 76 350
e 76 352
e 77 93
e 77 137
e 77 355
e 78 363
e 79 288
e 79 359
e 79 373
e 80 108
e 80 113
e 80 126
e 80 135
e 80 248
e 80 257
e 80 300
e 80 310
e 80 331
e 80 408
e 80 489
e 80 498
e 81 313
e 81 457
e 81 462
e 81 506
e 82 129
e 83 92
e 83 132
e 83 150
e 83 156
e 83 238
e 83 296
e 83 310
e 83 370
e 83 512
e 84 94
e 84 187
e 84 283
e 84 299
e 84 317
e 84 337
e 84 424
e 84 503
e 85 144
e 85 181
e 85 185
e 85 212
e 85 436
e 86 98
e 86 177
e 86 449
e 87 93
e 87 110
e 87 213
e 87 297
e 87 453
e 88 114
e 88 323
e 88 409
e 88 435
e 88 471
e 89 131
e 89 214
e 89 488
e 89 491
e 90 149
e 90 335
e 91 287
e 92 132
e 92 150
e 92 156
e 92 190
e 92 238
e 92 296
e 92 370
e 92 431
e 92 512
e 93 110
e 93 120
e 93 137
e 93 147
e 93 162
e 93 163
e 93 165
e 93 169
e 93 186
e 93 188
e 93 213
e 93 252
e 93 256
e 93 261
e 93 265
e 93 266
e 93 282
e 93 290
e 93 297
e 93 298
e 93 314
e 93 318
e 93 321
e 93 333
e 93 342
e 93 354
e 93 355
e 93 357
e 93 377
e 93 381
e 93 397
e 93 410
e 93 423
e 93 451
e 93 453
e 93 457
e 93 463
e 93 475
e 93 493
e 93 511
e 94 187
e 94 299
e 94 503
e 95 160
e 95 247
e 95 269
e 95 399
e 95 440
e 95 502
e 96 466
e 97 104
e 97 159
e 97 207
e 97 208
e 97 240
e 98 177
e 98 449
e 99 457
e 100 328
e 101 137
e 101 253
e 101 285
e 101 340
e 101 383
e 101 389
e 101 457
e 101 469
e 102 310
e 103 197
e 103 217
e 103 301
e 103 312
e 103 360
e 104 240
e 105 402
e 105 477
e 106 107
e 106 110
e 106 163
e 106 233
e 106 372
e 106 411
e 107 110
e 107 163
e 107 233
e 107 362
e 107 372
e 107 411
e 108 300
e 108 310
e 108 408
e 109 166
e 109 192
e 109 228
e 109 387
e 110 163
e 110 213
e 110 233
e 110 297
e 110 372
e 110 411
e 110 453
e 111 269
e 111 286
e 111 338
e 111 446
e 111 485
e 112 141
e 112 221
e 112 242
e 112 464
e 113 116
e 113 117
e 113 131
e 113 139
e 113 145
e 113 146
e 113 155
e 113 219
e 113 234
e 113 239
e 113 241
e 113 279
e 113 284
e 113 295
e 113 346
e 113 368
e 113 419
e 113 441
e 113 452
e 113 466
e 113 474
e 113 484
e 114 323
e 114 409
e 115 271
e 115 291
e 115 356
e 115 364
e 115 374
e 115 421
e 115 445
e 115 450
e 116 117
e 118 158
e 118 289
e 118 479
e 118 486
e 119 167
e 119 285
e 120 162
e 120 163
e 120 463
e 121 153
e 121 169
e 121 170
e 121 186
e 121 196
e 121 204
e 121 216
e 121 223
e 121 229
e 121 250
e 121 257
e 121 294
e 121 306
e 121 336
e 121 348
e 121 396
e 121 403
e 121 414
e 121 448
e 121 504
e 121 505
e 121 516
e 122 143
e 123 140
e 123 242
e 123 429
e 124 133
e 124 350
e 124 352
e 125 364
e 127 252
e 127 268
e 128 215
e 128 456
e 130 140
e 130 460
e 130 461
e 131 224
e 131 491
e 132 150
e 132 156
e 132 238
e 132 274
e 132 276
e 132 296
e 132 370
e 132 425
e 132 483
e 132 512
e 133 274
e 133 325
e 133 350
e 133 352
e 133 494
e 134 182
e 134 394
e 134 434
e 134 514
e 135 257
e 136 184
e 137 163
e 137 253
e 137 260
e 137 285
e 137 340
e 137 355
e 137 389
e 137 457
e 137 469
e 138 399
e 139 368
e 140 242
e 140 245
e 140 300
e 140 429
e 140 460
e 140 461
e 141 221
e 141 242
e 141 326
e 141 464
e 142 169
e 142 307
e 142 309
e 142 328
e 143 230
e 143 349
e 143 391
e 143 438
e 144 181
e 144 436
e 145 155
e 145 279
e 145 419
e 146 474
e 147 261
e 148 177
e 148 291
e 149 199
e 149 335
e 149 351
e 149 352
e 149 353
e 149 468
e 150 156
e 150 238
e 150 296
e 150 370
e 150 512
e 151 183
e 151 269
e 151 306
e 151 315
e 152 357
e 152 389
e 152 486
e 154 161
e 154 182
e 155 279
e 155 419
e 156 238
e 156 296
e 156 370
e 156 512
e 157 399
e 157 502
e 158 289
e 158 479
e 158 486
e 160 327
e 160 399
e 160 440
e 160 502
e 161 182
e 162 163
e 162 463
e 163 169
e 163 233
e 163 260
e 163 267
e 163 302
e 163 304
e 163 332
e 163 333
e 163 355
e 163 372
e 163 389
e 163 411
e 163 463
e 164 165
e 164 195
e 164 252
e 164 277
e 164 278
e 164 375
e 165 252
e 165 265
e 165 277
e 165 278
e 165 290
e 165 375
e 165 423
e 166 192
e 166 228
e 166 387
e 167 285
e 168 344
e 168 370
e 169 229
e 169 257
e 169 265
e 169 266
e 169 298
e 169 321
e 169 336
e 169 355
e 170 294
e 171 182
e 172 206
e 172 218
e 172 495
e 172 507
e 172 508
e 173 248
e 173 292
e 174 189
e 174 403
e 175 218
e 176 252
e 177 291
e 177 449
e 178 262
e 178 426
e 178 509
e 179 373
e 179 382
e 179 397
e 179 475
e 180 324
e 181 436
e 182 308
e 182 434
e 182 514
e 183 269
e 183 315
e 184 455
e 184 456
e 185 212
e 186 188
e 186 256
e 186 294
e 186 314
e 186 354
e 186 355
e 186 357
e 186 377
e 186 397
e 186 457
e 186 493
e 186 511
e 187 204
e 187 299
e 187 317
e 187 424
e 187 476
e 187 503
e 188 256
e 188 314
e 188 354
e 188 357
e 188 457
e 188 493
e 188 511
e 189 403
e 190 431
e 190 496
e 191 456
e 192 228
e 192 364
e 192 387
e 192 436
e 193 385
e 194 209
e 196 294
e 197 217
e 197 301
e 197 312
e 197 360
e 198 306
e 198 417
e 199 351
e 199 352
e 199 353
e 199 468
e 200 210
e 200 211
e 200 258
e 200 299
e 200 361
e 200 388
e 200 492
e 200 497
e 201 294
e 202 415
e 203 516
e 204 379
e 204 385
e 204 392
e 204 499
e 204 516
e 205 218
e 205 457
e 206 507
e 206 508
e 207 208
e 207 399
e 210 211
e 213 297
e 213 453
e 214 341
e 214 488
e 215 456
e 217 272
e 217 301
e 217 312
e 217 360
e 217 458
e 218 457
e 218 495
e 219 239
e 219 241
e 219 474
e 220 221
e 220 420
e 221 242
e 221 326
e 221 420
e 221 464
e 221 513
e 225 259
e 225 287
e 225 307
e 225 365
e 225 390
e 226 287
e 227 503
e 228 387
e 229 257
e 229 336
e 231 232
e 231 406
e 231 407
e 232 406
e 233 237
e 233 372
e 233 411
e 234 295
e 235 262
e 236 357
e 236 383
e 237 372
e 238 296
e 238 370
e 238 512
e 239 241
e 239 474
e 241 474
e 242 429
e 242 464
e 243 349
e 243 430
e 243 441
e 243 478
e 244 437
e 246 336
e 247 376
e 247 399
e 248 273
e 248 292
e 248 395
e 249 252
e 249 334
e 250 396
e 251 364
e 252 258
e 252 264
e 252 268
e 252 277
e 252 278
e 252 319
e 252 320
e 252 321
e 252 330
e 252 334
e 252 357
e 252 375
e 252 380
e 252 403
e 252 442
e 252 475
e 252 481
e 253 285
e 253 340
e 253 389
e 253 457
e 253 469
e 254 392
e 255 282
e 255 345
e 255 357
e 256 314
e 256 354
e 256 357
e 256 389
e 256 457
e 256 493
e 256 511
e 257 336
e 257 427
e 257 435
e 258 299
e 258 361
e 258 388
e 258 412
e 258 467
e 258 492
e 258 497
e 259 287
e 259 307
e 259 365
e 259 390
e 259 444
e 260 355
e 262 426
e 262 509
e 264 357
e 264 402
e 264 442
e 265 266
e 265 290
e 265 298
e 265 321
e 265 355
e 265 389
e 265 423
e 265 451
e 266 298
e 266 321
e 266 355
e 267 302
e 267 304
e 267 333
e 269 315
e 269 399
e 270 473
e 270 502
e 271 291
e 271 380
e 271 421
e 272 458
e 272 498
e 274 276
e 274 350
e 274 352
e 274 425
e 274 483
e 275 441
e 276 425
e 276 483
e 277 278
e 277 375
e 278 375
e 279 419
e 280 347
e 280 378
e 280 393
e 280 432
e 282 333
e 282 345
e 282 357
e 282 371
e 283 337
e 285 321
e 285 340
e 285 389
e 285 416
e 285 457
e 285 469
e 286 338
e 287 307
e 287 365
e 287 384
e 287 390
e 287 401
e 287 500
e 288 359
e 288 373
e 289 479
e 289 486
e 290 423
e 291 421
e 293 300
e 293 310
e 294 504
e 296 370
e 296 512
e 297 453
e 298 321
e 298 355
e 298 463
e 299 361
e 299 388
e 299 492
e 299 497
e 299 503
e 300 310
e 300 311
e 300 408
e 300 480
e 301 312
e 301 360
e 302 304
e 302 333
e 303 382
e 303 454
e 304 333
e 306 414
e 306 417
e 306 443
e 306 456
e 306 516
e 307 365
e 307 390
e 310 408
e 310 498
e 312 360
e 313 457
e 313 506
e 314 354
e 314 357
e 314 457
e 314 493
e 314 511
e 318 463
e 319 320
e 319 321
e 319 481
e 320 321
e 320 481
e 321 355
e 321 416
e 321 481
e 322 389
e 323 409
e 324 455
e 324 472
e 324 487
e 327 399
e 329 399
e 336 348
e 337 415
e 337 418
e 339 447
e 339 501
e 340 389
e 340 457
e 340 469
e 343 422
e 345 357
e 346 441
e 346 484
e 347 378
e 347 393
e 347 432
e 349 430
e 349 438
e 349 441
e 349 478
e 350 352
e 351 352
e 351 353
e 351 468
e 352 353
e 352 465
e 352 468
e 353 468
e 354 357
e 354 389
e 354 457
e 354 493
e 354 511
e 355 358
e 355 377
e 356 445
e 356 450
e 357 371
e 357 383
e 357 389
e 357 442
e 357 457
e 357 486
e 357 493
e 357 511
e 359 373
e 361 388
e 361 492
e 361 497
e 364 436
e 365 390
e 366 476
e 366 490
e 367 433
e 369 389
e 369 435
e 370 512
e 372 411
e 373 382
e 373 397
e 373 475
e 376 399
e 378 393
e 378 432
e 378 470
e 379 499
e 380 403
e 381 397
e 382 397
e 382 454
e 382 475
e 384 401
e 385 516
e 386 433
e 388 492
e 388 497
e 389 435
e 389 457
e 389 469
e 389 486
e 393 432
e 394 434
e 397 475
e 398 399
e 399 440
e 399 466
e 399 502
e 402 477
e 403 448
e 403 515
e 406 407
e 412 467
e 413 435
e 414 516
e 415 418
e 422 510
e 422 515
e 425 483
e 426 509
e 427 435
e 428 486
e 430 441
e 430 478
e 434 514
e 440 502
e 441 478
e 441 484
e 445 450
e 446 485
e 447 501
e 455 456
e 455 487
e 457 469
e 457 493
e 457 506
e 457 511
e 459 477
e 460 461
e 473 502
e 476 490
e 479 486
e 492 497
e 493 511
e 507 508
