biology/CliquerOutput/bio-diseasome.out
size=11, weight=11:   71 93 186 188 256 314 354 357 457 493 511
